(set-option :produce-models true)
(set-logic QF_LRA)
(set-info :notes | Strip-packing problem.|)
(declare-fun x0 () Real)
(declare-fun y0 () Real)
(declare-fun x1 () Real)
(declare-fun y1 () Real)
(declare-fun x2 () Real)
(declare-fun y2 () Real)
(declare-fun x3 () Real)
(declare-fun y3 () Real)
(declare-fun x4 () Real)
(declare-fun y4 () Real)
(declare-fun x5 () Real)
(declare-fun y5 () Real)
(declare-fun x6 () Real)
(declare-fun y6 () Real)
(declare-fun x7 () Real)
(declare-fun y7 () Real)
(declare-fun x8 () Real)
(declare-fun y8 () Real)
(declare-fun x9 () Real)
(declare-fun y9 () Real)
(declare-fun x10 () Real)
(declare-fun y10 () Real)
(declare-fun x11 () Real)
(declare-fun y11 () Real)
(declare-fun z () Real)
(declare-fun c () Real)
(assert (and (= c z) (and (>= x0 0) 
(and (>= y0 0) 
(and (>= x1 0) 
(and (>= y1 0) 
(and (>= x2 0) 
(and (>= y2 0) 
(and (>= x3 0) 
(and (>= y3 0) 
(and (>= x4 0) 
(and (>= y4 0) 
(and (>= x5 0) 
(and (>= y5 0) 
(and (>= x6 0) 
(and (>= y6 0) 
(and (>= x7 0) 
(and (>= y7 0) 
(and (>= x8 0) 
(and (>= y8 0) 
(and (>= x9 0) 
(and (>= y9 0) 
(and (>= x10 0) 
(and (>= y10 0) 
(and (>= x11 0) 
(and (>= y11 0) 
(and (>= z 0) 
(and (>= c 0) 
(and (<= (+ x0 0.3206419566) z) 
(and (<= 0.975290603 y0) 
(and (<= y0 1.0) 
(and (<= x0 (- 4.1239491354 0.3206419566)) 
(and (>= x0 0) 
(and (<= (+ x1 0.2684518014) z) 
(and (<= 0.9589564131 y1) 
(and (<= y1 1.0) 
(and (<= x1 (- 4.1239491354 0.2684518014)) 
(and (>= x1 0) 
(and (<= (+ x2 0.7271698835) z) 
(and (<= 0.9257201363 y2) 
(and (<= y2 1.0) 
(and (<= x2 (- 4.1239491354 0.7271698835)) 
(and (>= x2 0) 
(and (<= (+ x3 0.7963295526) z) 
(and (<= 0.9073065782 y3) 
(and (<= y3 1.0) 
(and (<= x3 (- 4.1239491354 0.7963295526)) 
(and (>= x3 0) 
(and (<= (+ x4 0.1909047506) z) 
(and (<= 0.8685440604 y4) 
(and (<= y4 1.0) 
(and (<= x4 (- 4.1239491354 0.1909047506)) 
(and (>= x4 0) 
(and (<= (+ x5 0.2303013315) z) 
(and (<= 0.8193486627 y5) 
(and (<= y5 1.0) 
(and (<= x5 (- 4.1239491354 0.2303013315)) 
(and (>= x5 0) 
(and (<= (+ x6 0.1820809297) z) 
(and (<= 0.7352727466 y6) 
(and (<= y6 1.0) 
(and (<= x6 (- 4.1239491354 0.1820809297)) 
(and (>= x6 0) 
(and (<= (+ x7 0.3655907893) z) 
(and (<= 0.6451530546 y7) 
(and (<= y7 1.0) 
(and (<= x7 (- 4.1239491354 0.3655907893)) 
(and (>= x7 0) 
(and (<= (+ x8 0.1532229827) z) 
(and (<= 0.6273435618 y8) 
(and (<= y8 1.0) 
(and (<= x8 (- 4.1239491354 0.1532229827)) 
(and (>= x8 0) 
(and (<= (+ x9 0.3405199977) z) 
(and (<= 0.4138705782 y9) 
(and (<= y9 1.0) 
(and (<= x9 (- 4.1239491354 0.3405199977)) 
(and (>= x9 0) 
(and (<= (+ x10 0.5487351598) z) 
(and (<= 0.111630671 y10) 
(and (<= y10 1.0) 
(and (<= x10 (- 4.1239491354 0.5487351598)) 
(and (>= x10 0) 
(and (<= (+ x11 0.3209420023) z) 
(and (<= 0.0480608717 y11) 
(and (<= y11 1.0) 
(and (<= x11 (- 4.1239491354 0.3209420023)) 
(and (>= x11 0) 
(and (<= c 4.1239491354) 
(and (or (<= (+ x0 0.3206419566) x1) (or (<= (+ x1 0.2684518014) x0) (or (>= (- y0 0.975290603) y1) (or (>= (- y1 0.9589564131) y0))))) 
(and (or (<= (+ x0 0.3206419566) x2) (or (<= (+ x2 0.7271698835) x0) (or (>= (- y0 0.975290603) y2) (or (>= (- y2 0.9257201363) y0))))) 
(and (or (<= (+ x0 0.3206419566) x3) (or (<= (+ x3 0.7963295526) x0) (or (>= (- y0 0.975290603) y3) (or (>= (- y3 0.9073065782) y0))))) 
(and (or (<= (+ x0 0.3206419566) x4) (or (<= (+ x4 0.1909047506) x0) (or (>= (- y0 0.975290603) y4) (or (>= (- y4 0.8685440604) y0))))) 
(and (or (<= (+ x0 0.3206419566) x5) (or (<= (+ x5 0.2303013315) x0) (or (>= (- y0 0.975290603) y5) (or (>= (- y5 0.8193486627) y0))))) 
(and (or (<= (+ x0 0.3206419566) x6) (or (<= (+ x6 0.1820809297) x0) (or (>= (- y0 0.975290603) y6) (or (>= (- y6 0.7352727466) y0))))) 
(and (or (<= (+ x0 0.3206419566) x7) (or (<= (+ x7 0.3655907893) x0) (or (>= (- y0 0.975290603) y7) (or (>= (- y7 0.6451530546) y0))))) 
(and (or (<= (+ x0 0.3206419566) x8) (or (<= (+ x8 0.1532229827) x0) (or (>= (- y0 0.975290603) y8) (or (>= (- y8 0.6273435618) y0))))) 
(and (or (<= (+ x0 0.3206419566) x9) (or (<= (+ x9 0.3405199977) x0) (or (>= (- y0 0.975290603) y9) (or (>= (- y9 0.4138705782) y0))))) 
(and (or (<= (+ x0 0.3206419566) x10) (or (<= (+ x10 0.5487351598) x0) (or (>= (- y0 0.975290603) y10) (or (>= (- y10 0.111630671) y0))))) 
(and (or (<= (+ x0 0.3206419566) x11) (or (<= (+ x11 0.3209420023) x0) (or (>= (- y0 0.975290603) y11) (or (>= (- y11 0.0480608717) y0))))) 
(and (or (<= (+ x1 0.2684518014) x2) (or (<= (+ x2 0.7271698835) x1) (or (>= (- y1 0.9589564131) y2) (or (>= (- y2 0.9257201363) y1))))) 
(and (or (<= (+ x1 0.2684518014) x3) (or (<= (+ x3 0.7963295526) x1) (or (>= (- y1 0.9589564131) y3) (or (>= (- y3 0.9073065782) y1))))) 
(and (or (<= (+ x1 0.2684518014) x4) (or (<= (+ x4 0.1909047506) x1) (or (>= (- y1 0.9589564131) y4) (or (>= (- y4 0.8685440604) y1))))) 
(and (or (<= (+ x1 0.2684518014) x5) (or (<= (+ x5 0.2303013315) x1) (or (>= (- y1 0.9589564131) y5) (or (>= (- y5 0.8193486627) y1))))) 
(and (or (<= (+ x1 0.2684518014) x6) (or (<= (+ x6 0.1820809297) x1) (or (>= (- y1 0.9589564131) y6) (or (>= (- y6 0.7352727466) y1))))) 
(and (or (<= (+ x1 0.2684518014) x7) (or (<= (+ x7 0.3655907893) x1) (or (>= (- y1 0.9589564131) y7) (or (>= (- y7 0.6451530546) y1))))) 
(and (or (<= (+ x1 0.2684518014) x8) (or (<= (+ x8 0.1532229827) x1) (or (>= (- y1 0.9589564131) y8) (or (>= (- y8 0.6273435618) y1))))) 
(and (or (<= (+ x1 0.2684518014) x9) (or (<= (+ x9 0.3405199977) x1) (or (>= (- y1 0.9589564131) y9) (or (>= (- y9 0.4138705782) y1))))) 
(and (or (<= (+ x1 0.2684518014) x10) (or (<= (+ x10 0.5487351598) x1) (or (>= (- y1 0.9589564131) y10) (or (>= (- y10 0.111630671) y1))))) 
(and (or (<= (+ x1 0.2684518014) x11) (or (<= (+ x11 0.3209420023) x1) (or (>= (- y1 0.9589564131) y11) (or (>= (- y11 0.0480608717) y1))))) 
(and (or (<= (+ x2 0.7271698835) x3) (or (<= (+ x3 0.7963295526) x2) (or (>= (- y2 0.9257201363) y3) (or (>= (- y3 0.9073065782) y2))))) 
(and (or (<= (+ x2 0.7271698835) x4) (or (<= (+ x4 0.1909047506) x2) (or (>= (- y2 0.9257201363) y4) (or (>= (- y4 0.8685440604) y2))))) 
(and (or (<= (+ x2 0.7271698835) x5) (or (<= (+ x5 0.2303013315) x2) (or (>= (- y2 0.9257201363) y5) (or (>= (- y5 0.8193486627) y2))))) 
(and (or (<= (+ x2 0.7271698835) x6) (or (<= (+ x6 0.1820809297) x2) (or (>= (- y2 0.9257201363) y6) (or (>= (- y6 0.7352727466) y2))))) 
(and (or (<= (+ x2 0.7271698835) x7) (or (<= (+ x7 0.3655907893) x2) (or (>= (- y2 0.9257201363) y7) (or (>= (- y7 0.6451530546) y2))))) 
(and (or (<= (+ x2 0.7271698835) x8) (or (<= (+ x8 0.1532229827) x2) (or (>= (- y2 0.9257201363) y8) (or (>= (- y8 0.6273435618) y2))))) 
(and (or (<= (+ x2 0.7271698835) x9) (or (<= (+ x9 0.3405199977) x2) (or (>= (- y2 0.9257201363) y9) (or (>= (- y9 0.4138705782) y2))))) 
(and (or (<= (+ x2 0.7271698835) x10) (or (<= (+ x10 0.5487351598) x2) (or (>= (- y2 0.9257201363) y10) (or (>= (- y10 0.111630671) y2))))) 
(and (or (<= (+ x2 0.7271698835) x11) (or (<= (+ x11 0.3209420023) x2) (or (>= (- y2 0.9257201363) y11) (or (>= (- y11 0.0480608717) y2))))) 
(and (or (<= (+ x3 0.7963295526) x4) (or (<= (+ x4 0.1909047506) x3) (or (>= (- y3 0.9073065782) y4) (or (>= (- y4 0.8685440604) y3))))) 
(and (or (<= (+ x3 0.7963295526) x5) (or (<= (+ x5 0.2303013315) x3) (or (>= (- y3 0.9073065782) y5) (or (>= (- y5 0.8193486627) y3))))) 
(and (or (<= (+ x3 0.7963295526) x6) (or (<= (+ x6 0.1820809297) x3) (or (>= (- y3 0.9073065782) y6) (or (>= (- y6 0.7352727466) y3))))) 
(and (or (<= (+ x3 0.7963295526) x7) (or (<= (+ x7 0.3655907893) x3) (or (>= (- y3 0.9073065782) y7) (or (>= (- y7 0.6451530546) y3))))) 
(and (or (<= (+ x3 0.7963295526) x8) (or (<= (+ x8 0.1532229827) x3) (or (>= (- y3 0.9073065782) y8) (or (>= (- y8 0.6273435618) y3))))) 
(and (or (<= (+ x3 0.7963295526) x9) (or (<= (+ x9 0.3405199977) x3) (or (>= (- y3 0.9073065782) y9) (or (>= (- y9 0.4138705782) y3))))) 
(and (or (<= (+ x3 0.7963295526) x10) (or (<= (+ x10 0.5487351598) x3) (or (>= (- y3 0.9073065782) y10) (or (>= (- y10 0.111630671) y3))))) 
(and (or (<= (+ x3 0.7963295526) x11) (or (<= (+ x11 0.3209420023) x3) (or (>= (- y3 0.9073065782) y11) (or (>= (- y11 0.0480608717) y3))))) 
(and (or (<= (+ x4 0.1909047506) x5) (or (<= (+ x5 0.2303013315) x4) (or (>= (- y4 0.8685440604) y5) (or (>= (- y5 0.8193486627) y4))))) 
(and (or (<= (+ x4 0.1909047506) x6) (or (<= (+ x6 0.1820809297) x4) (or (>= (- y4 0.8685440604) y6) (or (>= (- y6 0.7352727466) y4))))) 
(and (or (<= (+ x4 0.1909047506) x7) (or (<= (+ x7 0.3655907893) x4) (or (>= (- y4 0.8685440604) y7) (or (>= (- y7 0.6451530546) y4))))) 
(and (or (<= (+ x4 0.1909047506) x8) (or (<= (+ x8 0.1532229827) x4) (or (>= (- y4 0.8685440604) y8) (or (>= (- y8 0.6273435618) y4))))) 
(and (or (<= (+ x4 0.1909047506) x9) (or (<= (+ x9 0.3405199977) x4) (or (>= (- y4 0.8685440604) y9) (or (>= (- y9 0.4138705782) y4))))) 
(and (or (<= (+ x4 0.1909047506) x10) (or (<= (+ x10 0.5487351598) x4) (or (>= (- y4 0.8685440604) y10) (or (>= (- y10 0.111630671) y4))))) 
(and (or (<= (+ x4 0.1909047506) x11) (or (<= (+ x11 0.3209420023) x4) (or (>= (- y4 0.8685440604) y11) (or (>= (- y11 0.0480608717) y4))))) 
(and (or (<= (+ x5 0.2303013315) x6) (or (<= (+ x6 0.1820809297) x5) (or (>= (- y5 0.8193486627) y6) (or (>= (- y6 0.7352727466) y5))))) 
(and (or (<= (+ x5 0.2303013315) x7) (or (<= (+ x7 0.3655907893) x5) (or (>= (- y5 0.8193486627) y7) (or (>= (- y7 0.6451530546) y5))))) 
(and (or (<= (+ x5 0.2303013315) x8) (or (<= (+ x8 0.1532229827) x5) (or (>= (- y5 0.8193486627) y8) (or (>= (- y8 0.6273435618) y5))))) 
(and (or (<= (+ x5 0.2303013315) x9) (or (<= (+ x9 0.3405199977) x5) (or (>= (- y5 0.8193486627) y9) (or (>= (- y9 0.4138705782) y5))))) 
(and (or (<= (+ x5 0.2303013315) x10) (or (<= (+ x10 0.5487351598) x5) (or (>= (- y5 0.8193486627) y10) (or (>= (- y10 0.111630671) y5))))) 
(and (or (<= (+ x5 0.2303013315) x11) (or (<= (+ x11 0.3209420023) x5) (or (>= (- y5 0.8193486627) y11) (or (>= (- y11 0.0480608717) y5))))) 
(and (or (<= (+ x6 0.1820809297) x7) (or (<= (+ x7 0.3655907893) x6) (or (>= (- y6 0.7352727466) y7) (or (>= (- y7 0.6451530546) y6))))) 
(and (or (<= (+ x6 0.1820809297) x8) (or (<= (+ x8 0.1532229827) x6) (or (>= (- y6 0.7352727466) y8) (or (>= (- y8 0.6273435618) y6))))) 
(and (or (<= (+ x6 0.1820809297) x9) (or (<= (+ x9 0.3405199977) x6) (or (>= (- y6 0.7352727466) y9) (or (>= (- y9 0.4138705782) y6))))) 
(and (or (<= (+ x6 0.1820809297) x10) (or (<= (+ x10 0.5487351598) x6) (or (>= (- y6 0.7352727466) y10) (or (>= (- y10 0.111630671) y6))))) 
(and (or (<= (+ x6 0.1820809297) x11) (or (<= (+ x11 0.3209420023) x6) (or (>= (- y6 0.7352727466) y11) (or (>= (- y11 0.0480608717) y6))))) 
(and (or (<= (+ x7 0.3655907893) x8) (or (<= (+ x8 0.1532229827) x7) (or (>= (- y7 0.6451530546) y8) (or (>= (- y8 0.6273435618) y7))))) 
(and (or (<= (+ x7 0.3655907893) x9) (or (<= (+ x9 0.3405199977) x7) (or (>= (- y7 0.6451530546) y9) (or (>= (- y9 0.4138705782) y7))))) 
(and (or (<= (+ x7 0.3655907893) x10) (or (<= (+ x10 0.5487351598) x7) (or (>= (- y7 0.6451530546) y10) (or (>= (- y10 0.111630671) y7))))) 
(and (or (<= (+ x7 0.3655907893) x11) (or (<= (+ x11 0.3209420023) x7) (or (>= (- y7 0.6451530546) y11) (or (>= (- y11 0.0480608717) y7))))) 
(and (or (<= (+ x8 0.1532229827) x9) (or (<= (+ x9 0.3405199977) x8) (or (>= (- y8 0.6273435618) y9) (or (>= (- y9 0.4138705782) y8))))) 
(and (or (<= (+ x8 0.1532229827) x10) (or (<= (+ x10 0.5487351598) x8) (or (>= (- y8 0.6273435618) y10) (or (>= (- y10 0.111630671) y8))))) 
(and (or (<= (+ x8 0.1532229827) x11) (or (<= (+ x11 0.3209420023) x8) (or (>= (- y8 0.6273435618) y11) (or (>= (- y11 0.0480608717) y8))))) 
(and (or (<= (+ x9 0.3405199977) x10) (or (<= (+ x10 0.5487351598) x9) (or (>= (- y9 0.4138705782) y10) (or (>= (- y10 0.111630671) y9))))) 
(and (or (<= (+ x9 0.3405199977) x11) (or (<= (+ x11 0.3209420023) x9) (or (>= (- y9 0.4138705782) y11) (or (>= (- y11 0.0480608717) y9))))) 
(and (or (<= (+ x10 0.5487351598) x11) (or (<= (+ x11 0.3209420023) x10) (or (>= (- y10 0.111630671) y11) (or (>= (- y11 0.0480608717) y10))))) )))))))))))))))))))))))))))))))))))))))))))))))))))))))))))))))))))))))))))))))))))))))))))))))))))))))))))))))))))))))))))))))))))))))))))))))))))))))))))
(minimize c)
(check-sat)
(get-objectives)
(exit)
